30
717
108
false
0.25
5 34 4 1 7 14 13 11 42 21 1 28 15 38 15 35 23 24 6 24 8 24 34 34 29 5 42 16 24 42
10 42 12 96 44 69 42 81 22 65 97 8 5 43 37 12 6 46 39 97 40 87 14 33 2 71 82 95 84 60
0 0 0 0 0 0 0 0 0 0 0 0 0 0 0 0 66 0 0 0 0 0 0 0 81 0 59 0 33 8
0 20 0 0 0 15 0 0 0 0 0 56 0 49 0 0 0 51 0 70 4 0 0 0 0 0 50 0 0
0 75 0 0 69 0 0 23 0 42 0 98 0 0 93 0 0 0 0 0 0 0 0 0 0 0 0 6
0 0 0 0 0 0 0 0 0 0 0 0 0 0 12 0 0 32 0 33 0 0 90 0 0 26 0
0 0 0 0 0 24 0 0 0 97 0 0 0 0 0 0 0 0 0 0 49 0 49 0 16 0
0 43 0 0 0 0 0 0 0 0 12 35 71 0 79 0 42 0 0 0 0 93 0 0 0
0 0 0 0 0 0 0 0 0 0 0 0 98 62 0 0 0 92 88 0 0 0 0 0
0 0 0 0 0 0 77 0 0 0 0 0 0 0 0 0 66 60 0 0 0 41 0
0 0 93 0 98 0 0 0 0 0 0 0 0 0 0 0 32 0 0 0 0 0
0 0 0 57 0 0 0 0 0 0 0 0 0 0 0 0 0 0 26 72 0
0 0 0 0 0 0 0 80 0 0 0 0 0 76 0 0 0 0 0 81
0 0 0 0 0 0 0 2 0 0 0 0 0 0 81 0 65 0 0
0 61 95 0 0 0 74 0 0 0 73 0 0 0 0 41 0 0
0 0 0 0 0 0 0 0 0 21 43 70 0 0 0 0 15
0 36 0 0 50 0 0 0 0 0 0 0 0 47 0 0
0 0 38 43 0 0 0 13 0 0 0 0 0 57 0
0 62 100 0 59 89 0 0 0 0 0 0 24 0
0 29 0 0 0 0 0 0 0 0 0 41 71
0 0 0 0 95 0 82 0 0 90 0 0
0 0 59 0 100 0 0 0 0 0 23
0 0 0 66 22 0 0 0 0 0
0 0 18 0 71 0 72 71 0
0 0 36 0 0 0 0 0
0 0 52 0 0 0 0
0 0 0 0 21 0
0 91 0 0 0
0 0 0 0
0 0 0
0 0
0 0 91 98 81 0 0 0 0 10 0 0 0 37 0 0 100 8 0 0 98 0 0 0 0 76 0 0 0
0 0 0 0 0 0 0 0 0 0 0 0 0 0 0 0 33 0 0 58 0 0 0 0 0 0 0 0
0 61 0 69 0 0 0 0 87 81 0 0 0 0 0 57 0 46 0 31 0 75 0 46 0 0 64
0 0 0 0 71 0 0 38 0 8 0 0 3 0 0 0 0 74 0 0 0 0 58 0 20 0
0 0 91 0 0 37 5 0 0 86 13 0 0 44 0 0 0 0 0 0 0 0 97 0 0
0 0 0 0 0 0 0 0 0 0 0 0 68 0 28 0 16 0 0 0 0 0 0 0
0 0 0 0 0 0 55 0 0 0 61 0 0 78 0 0 0 0 0 0 25 0 18
0 0 0 0 0 0 0 51 0 58 83 0 8 41 0 71 0 0 89 0 95 0
0 0 0 0 0 43 69 0 0 0 0 0 0 0 0 57 0 0 67 0 0
0 23 0 0 0 0 19 0 0 65 0 0 0 0 0 0 0 68 71 0
0 0 0 0 0 0 0 0 0 0 0 0 2 0 0 0 0 0 0
0 0 0 0 0 0 0 7 0 10 0 8 0 0 0 0 0 0
0 0 69 0 0 0 0 0 0 0 0 0 0 0 0 0 0
0 33 0 0 62 0 0 0 0 30 0 0 0 0 0 0
0 0 0 0 0 61 0 12 0 0 0 0 0 93 77
0 79 59 0 0 0 0 0 0 86 0 0 96 0
0 0 0 0 0 0 0 0 0 0 0 57 0
0 22 0 0 0 0 0 32 0 0 0 0
0 0 0 0 14 0 0 0 0 0 37
0 0 39 0 0 0 0 87 0 0
0 0 0 0 0 39 65 0 0
0 0 0 0 7 0 69 38
0 0 0 14 0 42 17
0 0 0 0 0 42
0 0 0 19 0
0 0 0 62
0 46 0
0 0
0
0 0 0 0 22 31 41 0 0 0 0 0 0 0 0 0 0 0 0 0 57 95 0 41 0 0 0 10
0 0 0 0 0 0 0 0 53 0 0 0 53 0 98 0 0 5 26 0 0 0 0 25 0 0 67
0 0 0 0 0 18 0 0 38 0 0 0 0 0 0 0 60 0 0 0 0 0 0 0 0 81
0 0 0 0 87 0 0 49 0 0 0 0 0 37 0 75 0 0 0 0 0 0 0 0 48
0 0 0 0 0 94 0 0 49 0 0 95 0 0 0 0 0 0 0 0 100 0 0 81
0 38 0 0 0 0 0 11 27 97 0 0 0 76 0 0 12 1 0 0 0 17 0
0 0 0 0 0 0 56 0 0 0 21 0 0 0 0 0 37 0 84 7 0 27
0 0 0 0 0 0 0 4 0 0 0 0 90 25 0 0 0 0 0 0 0
0 0 0 81 0 0 93 0 0 0 0 0 0 0 0 0 0 0 70 0
0 16 0 0 73 0 0 51 0 0 0 0 0 0 62 0 0 0 0
0 70 0 92 69 52 0 0 0 23 0 95 0 0 42 39 48 63
0 0 0 0 0 0 0 60 0 0 0 0 0 83 60 0 75
0 0 0 23 0 8 0 0 0 0 0 0 0 0 0 0
0 0 0 0 46 0 5 0 0 0 0 0 59 57 0
0 53 0 0 0 0 28 0 0 0 0 73 0 41
0 0 31 23 0 0 0 0 0 0 100 53 17
0 0 0 0 0 0 0 0 0 0 0 0
0 0 27 0 0 0 0 7 0 0 0
0 0 0 0 0 0 0 0 76 0
0 0 73 0 11 0 0 0 0
0 52 0 0 26 0 4 53
0 100 0 72 0 0 0
0 72 0 0 0 0
0 0 90 0 0
0 0 0 0
0 16 0
0 0
0
0 0 0 0 64 76 0 36 15 0 0 0 0 0 0 0 0 0 0 0 0 0 0 0 0 0 0
0 0 0 0 0 0 0 87 81 53 0 0 0 0 0 0 0 0 0 29 10 0 75 0 0 0
0 0 8 4 0 0 0 0 95 0 0 0 69 0 47 0 77 0 0 89 94 0 22 0 0
0 0 0 0 0 15 0 0 0 38 63 0 0 0 0 72 0 0 0 0 0 9 0 0
0 36 78 0 0 52 0 0 8 39 0 63 0 0 0 59 59 0 0 0 0 7 0
0 0 3 0 23 68 73 0 0 86 0 35 85 0 87 0 0 0 0 0 0 0
0 0 47 0 27 0 0 34 0 35 0 70 0 0 0 36 38 0 0 71 28
0 0 0 47 0 0 0 0 0 0 0 0 0 0 91 0 44 0 0 0
0 95 0 0 0 0 0 0 0 0 0 0 0 5 0 0 0 0 0
0 72 0 0 0 0 0 0 0 0 0 0 0 0 0 0 0 76
0 0 0 0 44 81 0 0 0 0 69 0 91 0 0 0 0
0 0 0 0 0 0 0 0 0 0 0 0 22 92 0 0
0 0 0 0 0 0 0 0 0 75 0 0 95 79 0
0 0 0 18 0 0 0 0 0 0 0 0 0 0
0 0 0 0 45 34 66 96 0 0 93 31 34
0 31 0 0 0 0 0 0 0 0 23 0
0 0 6 0 56 10 0 0 52 0 58
0 87 0 0 0 0 0 0 0 0
0 0 80 52 0 0 0 0 46
0 11 0 0 0 0 0 0
0 0 0 0 0 52 0
0 10 0 0 0 0
0 0 11 46 0
0 0 0 0
0 0 0
0 0
0
0 3 0 0 0 0 0 0 28 0 81 0 0 0 0 98 0 0 11 54 0 0 0 82 0 53
0 0 0 0 33 0 0 0 0 0 0 0 68 43 62 83 0 0 0 90 0 0 0 0 0
0 0 0 0 0 0 0 0 0 0 0 15 46 0 4 0 0 84 0 0 0 10 0 0
0 0 0 0 0 0 0 18 2 0 0 15 0 0 0 59 66 0 3 68 55 0 15
0 0 0 0 0 0 0 0 88 0 20 0 0 0 0 0 0 0 44 0 0 68
0 0 0 0 0 0 80 87 0 0 0 0 0 0 0 51 20 49 0 0 9
0 0 0 1 0 0 0 26 0 32 0 87 0 0 0 34 0 0 0 0
0 0 21 0 0 63 74 0 0 0 57 0 0 0 0 0 0 0 0
0 0 0 0 0 71 40 0 0 0 0 0 0 0 0 0 0 0
0 0 0 0 0 0 0 0 0 75 0 0 0 0 0 0 0
0 0 0 0 0 0 0 0 0 0 74 0 23 0 88 14
0 32 0 0 0 0 0 0 0 84 0 0 0 0 0
0 0 0 0 0 18 21 0 0 0 0 94 0 0
0 0 0 0 0 0 0 0 0 0 0 0 23
0 2 0 0 63 0 0 47 0 0 0 0
0 0 13 0 83 91 75 0 0 0 62
0 0 0 0 0 19 0 0 0 0
0 0 0 0 0 0 54 0 0
0 0 0 0 0 28 0 0
0 0 100 0 0 18 0
0 71 0 24 95 0
0 0 0 67 88
0 0 0 0
0 0 64
0 0
0
0 0 11 81 0 77 0 74 0 0 98 0 56 0 13 0 0 0 0 53 0 0 0 0 0
0 0 50 0 0 0 0 0 0 0 88 0 93 0 0 0 0 0 8 0 0 0 0 0
0 0 0 68 0 0 16 47 0 0 0 0 0 0 71 0 0 0 0 3 0 0 0
0 0 50 0 0 68 0 0 0 0 0 0 0 0 0 0 61 0 0 0 0 0
0 0 0 0 0 0 0 0 0 1 98 0 60 43 0 16 0 0 16 65 26
0 0 70 26 0 0 0 0 12 0 0 87 0 0 0 72 0 17 0 49
0 0 0 0 0 44 0 60 0 34 0 0 0 0 0 0 0 0 0
0 0 43 0 0 0 68 0 0 0 52 0 0 0 0 0 0 0
0 0 22 37 0 0 0 0 43 0 0 0 70 0 0 28 23
0 45 0 0 81 0 0 0 40 68 0 0 0 88 5 0
0 76 0 0 0 62 23 0 0 0 0 0 0 87 0
0 0 0 67 54 0 0 0 0 0 0 21 0 0
0 0 24 49 0 0 12 0 0 0 33 0 0
0 0 0 71 0 0 0 0 21 0 0 0
0 76 0 60 33 0 58 73 0 0 0
0 87 72 0 0 0 80 0 53 0
0 0 0 0 0 49 0 0 0
0 0 0 93 76 84 77 0
0 55 0 0 34 0 0
0 9 0 0 0 0
0 95 0 41 0
0 0 0 0
0 0 0
0 82
0
0 25 0 13 0 0 0 0 0 0 0 0 0 0 0 0 0 0 0 0 0 37 0 0
0 0 8 0 0 0 0 0 0 51 3 0 1 0 0 0 66 0 0 0 0 0 54
0 0 59 0 14 0 0 0 0 0 0 0 0 0 49 0 0 0 0 0 0 0
0 0 53 0 4 35 0 0 78 0 0 0 0 0 0 27 0 0 0 0 0
0 0 0 0 0 95 0 94 0 0 0 0 0 0 39 0 69 0 84 0
0 0 0 0 52 0 0 0 87 0 0 0 0 0 0 0 0 0 0
0 0 0 0 96 13 0 0 66 0 85 0 0 0 34 0 0 21
0 0 77 0 0 0 30 0 0 0 0 36 0 0 0 0 0
0 0 0 0 30 89 0 64 80 0 0 76 0 0 0 0
0 0 22 0 0 0 3 0 25 0 0 0 32 0 0
0 0 0 0 0 30 9 0 0 0 0 0 0 0
0 0 0 0 0 0 0 19 0 0 19 52 0
0 69 0 95 0 0 0 0 0 17 28 0
0 0 0 0 65 0 0 0 0 0 62
0 0 22 98 0 51 0 0 85 0
0 0 0 83 0 0 98 0 0
0 7 0 0 0 0 0 8
0 5 0 0 0 0 0
0 40 0 0 0 0
0 0 0 0 0
0 92 0 0
0 0 0
0 0
0
0 0 0 0 0 0 68 0 0 51 42 0 0 0 0 0 0 0 50 0 85 0 0
0 0 0 94 0 0 0 0 0 29 52 0 0 0 0 56 0 0 0 0 45 0
0 0 0 0 0 0 0 49 16 0 0 0 0 53 44 0 54 0 22 0 0
0 0 92 0 0 0 35 0 0 0 0 0 0 0 0 50 0 0 0 0
0 0 76 95 0 94 0 0 0 96 0 0 77 0 0 0 0 0 68
0 0 74 0 23 0 0 0 85 0 0 0 0 0 0 52 0 0
0 0 0 0 0 0 0 0 0 40 0 0 0 81 35 36 0
0 2 0 0 0 0 0 0 0 0 0 0 83 0 53 0
0 0 0 67 0 0 36 0 0 0 21 0 0 0 0
0 8 0 0 0 77 0 13 0 0 0 0 0 0
0 0 0 0 0 0 6 0 0 0 0 0 0
0 39 0 0 0 0 0 94 0 0 97 0
0 29 14 0 0 0 0 0 34 0 0
0 0 0 0 41 0 0 0 0 0
0 14 0 0 0 0 0 0 0
0 0 0 0 0 79 3 6
0 0 0 0 0 0 0
0 0 95 0 0 2
0 0 22 31 0
0 55 0 0
0 0 0
0 0
0
0 0 0 0 0 0 0 0 0 61 83 6 84 0 35 39 64 0 0 0 0 69
0 0 0 0 80 0 0 0 0 0 0 0 0 0 55 0 0 0 50 0 40
0 67 0 33 0 90 0 0 0 0 0 0 33 0 40 0 0 4 0 0
0 24 0 0 0 0 0 0 0 0 0 0 0 0 0 0 0 0 0
0 0 68 45 63 0 0 0 0 0 0 59 0 39 0 0 0 29
0 0 0 0 0 0 0 0 0 17 0 0 0 84 0 0 0
0 0 0 20 0 0 41 0 0 0 0 3 0 0 2 0
0 0 0 0 67 0 0 0 0 93 60 99 0 0 0
0 0 0 15 0 42 0 0 0 0 0 1 0 0
0 27 0 0 0 45 0 0 0 0 0 0 70
0 19 54 76 38 92 0 31 0 90 19 0
0 0 72 0 8 71 0 0 0 0 73
0 77 0 0 0 0 0 0 0 78
0 32 0 0 0 87 0 0 0
0 0 0 0 0 0 0 0
0 0 0 82 0 76 0
0 0 0 0 0 0
0 0 0 0 20
0 81 0 0
0 20 0
0 0
0
0 45 98 0 0 0 80 41 74 87 0 19 0 0 0 7 0 0 2 0 0
0 0 0 100 0 10 87 0 0 0 0 0 0 0 0 0 0 0 71 25
0 0 0 0 19 0 11 11 0 0 54 51 0 0 0 0 79 0 0
0 0 0 0 33 6 0 31 0 0 0 0 0 30 0 0 0 0
0 0 0 30 0 0 52 0 0 0 43 0 0 0 100 4 0
0 59 0 24 61 0 0 0 0 0 13 0 26 10 0 60
0 0 0 0 0 0 0 0 71 0 0 0 0 16 0
0 9 0 0 0 0 62 0 0 0 0 0 0 0
0 49 0 0 0 0 0 0 0 85 35 0 35
0 0 10 0 94 0 0 0 30 20 0 16
0 0 0 0 0 0 0 0 0 0 51
0 0 0 0 0 99 0 91 0 48
0 0 0 44 0 0 98 0 0
0 0 47 72 0 0 0 20
0 82 12 17 59 0 69
0 0 0 10 69 0
0 0 0 44 94
0 23 0 0
0 0 31
0 0
0
0 0 0 94 0 0 0 0 0 0 71 0 0 86 0 58 0 0 0 46
0 95 0 0 0 97 0 18 0 51 0 80 49 0 55 94 0 0 61
0 0 0 75 0 45 57 0 0 0 0 0 97 0 0 0 0 61
0 0 0 0 0 75 0 0 70 97 96 20 0 81 0 55 0
0 0 97 0 0 0 0 84 0 0 32 0 0 43 16 0
0 0 0 0 15 92 14 0 0 0 49 80 68 0 0
0 0 13 0 0 78 92 69 49 0 44 0 0 0
0 0 0 0 0 0 62 0 0 96 93 0 0
0 52 0 20 48 0 0 0 0 0 0 0
0 0 1 0 93 0 0 11 0 45 0
0 0 96 0 73 0 0 0 80 0
0 0 0 0 12 0 0 12 0
0 0 0 0 0 10 0 0
0 0 0 85 0 0 0
0 0 0 0 0 0
0 46 0 0 0
0 47 0 0
0 0 0
0 0
0
0 0 0 87 0 39 0 0 0 0 69 0 0 0 55 0 0 0 0
0 0 0 62 0 10 24 0 0 0 0 0 77 57 0 0 0 0
0 0 39 0 0 0 0 0 0 0 0 0 0 0 0 0 0
0 0 0 0 0 0 85 0 0 0 62 0 79 0 0 0
0 0 0 32 50 0 11 0 0 12 0 0 0 0 0
0 28 0 0 0 0 0 93 0 60 0 49 0 0
0 0 0 0 15 7 49 20 0 0 0 0 91
0 0 0 0 0 0 15 0 65 0 58 11
0 0 0 0 0 85 0 0 0 0 0
0 0 0 91 0 0 71 80 87 0
0 0 0 0 0 36 0 0 0
0 0 58 0 0 49 61 71
0 0 0 0 0 0 49
0 0 0 0 0 0
0 14 0 29 0
0 0 0 79
0 0 0
0 0
0
0 0 0 0 0 0 0 0 96 0 0 0 0 0 0 0 0 0
0 0 0 0 70 75 0 0 0 38 54 0 0 0 0 0 0
0 0 0 0 12 50 0 89 20 0 0 16 0 0 0 0
0 0 0 0 0 0 1 0 0 0 45 0 0 0 97
0 17 0 0 16 76 0 0 0 0 89 0 73 0
0 0 0 0 0 78 14 0 0 0 0 0 0
0 0 0 0 0 0 0 61 0 0 0 0
0 41 0 0 0 0 0 0 0 60 0
0 75 0 0 0 51 0 0 0 59
0 89 0 0 0 0 0 75 0
0 0 80 0 0 0 0 0
0 0 77 0 0 0 0
0 0 86 0 0 0
0 0 0 0 0
0 0 0 0
0 79 0
0 0
0
0 0 0 0 0 0 0 0 0 0 0 0 0 35 98 0 0
0 0 82 0 25 0 58 0 0 91 0 0 0 90 0 0
0 52 0 0 37 0 0 14 96 74 0 71 0 0 0
0 0 0 0 0 0 0 0 0 87 52 45 52 65
0 0 0 0 0 0 0 0 0 53 0 0 0
0 70 0 0 0 0 0 0 57 0 0 0
0 0 26 0 0 0 0 10 16 0 0
0 0 0 0 68 30 0 0 0 0
0 14 0 0 73 0 0 71 0
0 0 0 0 44 0 0 0
0 0 0 0 0 0 0
0 10 0 0 0 0
0 0 0 0 0
0 0 0 0
0 0 0
0 0
0
0 0 28 0 0 75 0 10 0 73 0 0 46 13 13 27
0 0 0 0 0 0 92 0 0 0 0 0 0 0 0
0 0 26 8 24 87 20 0 0 93 0 0 0 0
0 0 0 15 0 0 0 0 0 0 0 0 88
0 0 0 0 0 0 0 0 0 58 12 0
0 0 0 0 0 0 0 0 0 0 0
0 0 0 0 0 0 0 0 18 76
0 26 0 0 0 0 0 41 0
0 0 0 0 0 0 23 9
0 0 0 0 0 68 0
0 0 58 23 0 0
0 0 0 0 0
0 5 0 0
0 0 33
0 0
0
0 28 0 0 0 0 0 0 15 0 0 0 0 0 0
0 38 56 0 0 0 37 0 0 0 20 0 0 99
0 0 0 0 0 0 0 0 0 0 0 41 0
0 0 0 0 0 78 58 0 0 0 82 0
0 15 30 0 0 44 16 0 0 0 0
0 93 0 0 0 83 0 0 0 0
0 43 0 0 33 0 0 0 0
0 0 96 94 0 0 0 39
0 0 0 80 64 73 0
0 68 0 0 43 100
0 31 0 0 2
0 0 0 0
0 0 0
0 0
0
0 0 0 0 62 0 0 0 8 26 0 0 0 0
0 0 0 0 66 0 0 0 0 0 0 0 0
0 0 0 98 46 0 0 0 0 0 0 0
0 0 40 57 83 0 0 0 0 0 63
0 35 49 0 0 0 0 97 0 0
0 0 0 0 3 61 13 0 51
0 0 0 0 0 0 0 7
0 0 0 0 32 45 57
0 0 0 0 0 0
0 67 0 0 0
0 0 0 0
0 0 80
0 0
0
0 0 0 70 0 0 0 0 0 0 0 0 37
0 0 0 0 0 0 0 45 0 0 28 0
0 46 22 0 51 0 8 0 25 0 0
0 0 63 93 59 0 0 0 0 0
0 0 0 29 0 0 0 0 0
0 0 0 0 0 0 0 0
0 0 0 61 60 25 0
0 0 17 0 0 74
0 0 0 0 0
0 0 0 0
0 0 0
0 40
0
0 0 76 16 0 0 0 83 0 91 0 0
0 60 0 47 28 0 0 32 0 0 92
0 37 70 0 0 0 0 0 0 100
0 0 0 0 50 0 0 35 82
0 0 0 0 69 0 75 5
0 0 0 0 91 0 0
0 0 0 0 0 0
0 0 0 0 0
0 0 0 46
0 57 0
0 0
0
0 0 0 0 0 0 0 0 31 0 0
0 0 0 0 20 0 0 9 77 92
0 71 0 52 0 0 0 0 0
0 0 0 5 0 85 94 0
0 0 0 0 0 54 0
0 0 0 0 0 0
0 0 0 0 0
0 26 81 43
0 0 0
0 0
0
0 0 0 0 0 0 0 22 0 98
0 19 0 100 0 0 0 0 0
0 0 0 0 0 0 0 14
0 0 0 46 0 51 0
0 0 0 0 0 87
0 0 0 40 0
0 17 0 70
0 0 43
0 0
0
0 0 0 0 0 0 0 0 0
0 0 85 0 0 0 0 0
0 0 0 0 43 0 0
0 0 96 43 99 0
0 64 0 0 0
0 0 0 6
0 0 15
0 0
0
0 19 0 0 0 0 0 0
0 98 0 0 0 0 72
0 0 47 0 0 0
0 0 0 0 32
0 94 0 0
0 0 0
0 0
0
0 16 0 0 0 0 0
0 86 0 8 0 0
0 0 0 0 0
0 28 96 0
0 0 0
0 0
0
0 0 88 79 0 94
0 0 55 56 0
0 0 0 0
0 5 0
0 0
0
0 0 0 0 47
0 85 0 80
0 0 0
0 0
0
0 0 0 0
0 53 0
0 0
0
0 75 0
0 78
0
0 0
0
0
5068 5735 5427 5471 6134 5574 4741 5599 6233 6680 5741 5234 5711 5374 5724 5515 6224 5696 6122 5143 6481 6142 5335 6505 6015 5139 6187 6271 5716 5817
1013.6 168.6764705882353 1356.75 5471.0 876.2857142857143 398.14285714285717 364.6923076923077 509.0 148.4047619047619 318.0952380952381 5741.0 186.92857142857142 380.73333333333335 141.42105263157896 381.6 157.57142857142858 270.60869565217394 237.33333333333334 1020.3333333333334 214.29166666666666 810.125 255.91666666666666 156.91176470588235 191.3235294117647 207.41379310344828 1027.8 147.3095238095238 391.9375 238.16666666666666 138.5
